************************************************************************
file with basedata            : md370_.bas
initial value random generator: 1158329395
************************************************************************
projects                      :  1
jobs (incl. supersource/sink ):  22
horizon                       :  158
RESOURCES
  - renewable                 :  2   R
  - nonrenewable              :  2   N
  - doubly constrained        :  0   D
************************************************************************
PROJECT INFORMATION:
pronr.  #jobs rel.date duedate tardcost  MPM-Time
    1     20      0       29       14       29
************************************************************************
PRECEDENCE RELATIONS:
jobnr.    #modes  #successors   successors
   1        1          3           2   3   4
   2        3          3           5  15  21
   3        3          2           8  11
   4        3          3           6   7  13
   5        3          2          11  20
   6        3          3          10  11  14
   7        3          2          18  20
   8        3          2           9  20
   9        3          3          10  12  13
  10        3          2          15  16
  11        3          1          19
  12        3          2          14  16
  13        3          2          14  16
  14        3          2          15  18
  15        3          1          19
  16        3          1          17
  17        3          2          18  19
  18        3          1          21
  19        3          1          22
  20        3          1          22
  21        3          1          22
  22        1          0        
************************************************************************
REQUESTS/DURATIONS:
jobnr. mode duration  R 1  R 2  N 1  N 2
------------------------------------------------------------------------
  1      1     0       0    0    0    0
  2      1     7      10    0    5    5
         2     8       0    4    1    5
         3     8       7    0    2    4
  3      1     1       6    0    8    9
         2     7       0    8    6    7
         3     9       4    0    5    7
  4      1     1       0    6    8    7
         2     4       0    5    6    4
         3     5       6    0    4    1
  5      1     3       0    6    8    7
         2     5       0    6    7    5
         3     6       7    0    6    5
  6      1     1       9    0    3    4
         2     2       8    0    2    3
         3     4       5    0    2    3
  7      1     1       7    0    6    5
         2     4       0    6    5    3
         3    10       3    0    4    2
  8      1     2       0    2    7   10
         2     4       5    0    4    8
         3     5       0    2    2    6
  9      1     6       0    3    5    5
         2     6       8    0    4    1
         3     6       8    0    1    4
 10      1     5       7    0    3    6
         2     6       4    0    3    5
         3     9       0    2    2    5
 11      1     6       0    4    8    3
         2     6       6    0    7    3
         3     9       0    4    7    2
 12      1     5       3    0    9    5
         2     9       3    0    7    4
         3    10       0    1    5    4
 13      1     1       0    1    5    2
         2     4       6    0    5    1
         3    10       0    1    5    1
 14      1     4       5    0    8    9
         2     8       5    0    4    7
         3    10       4    0    1    5
 15      1     2       5    0   10    8
         2     5       0    3   10    6
         3     9       0    2   10    6
 16      1     7       0    8    9    8
         2     7       5    0   10    9
         3     8       3    0    9    1
 17      1     3       0    3    7    4
         2     3       7    0    9    4
         3     7       0    3    2    2
 18      1     1       0    4    9    7
         2     8       0    2    9    6
         3    10       7    0    8    6
 19      1     5       8    0    2    9
         2     6       6    0    1    7
         3     7       0    9    1    3
 20      1     6       5    0    6    4
         2     7       5    0    4    2
         3     7       5    0    2    3
 21      1     4       0   10    9    2
         2     6       0    8    9    1
         3     9       0    7    9    1
 22      1     0       0    0    0    0
************************************************************************
RESOURCEAVAILABILITIES:
  R 1  R 2  N 1  N 2
   20   13  125  107
************************************************************************
MAXIMAL LAGS:
from  to  type  delay
    1   12   ES      0
    1    2   ES      0
    2   12   ES      0
    1    3   ES      0
    3   12   ES      0
    1    4   ES      0
    4   12   ES      0
    1    5   ES      0
    5   12   ES      0
    1    6   ES      0
    6   12   ES      0
    1    7   ES      0
    7   12   ES      0
    1    8   ES      0
    8   12   ES      0
    1    9   ES      0
    9   12   ES      0
    1   10   ES      0
   10   12   ES      0
    1   11   ES      0
   11   12   ES      0
    1   12   ES      0
    2    5   SS      8
    2    5   SE      5
    2    5   ES     -1
    2    5   EE     -6
    2   15   SS     -7
    2   15   SE      7
    2   15   ES      5
    2   15   EE      2
    2   21   SS     -5
    2   21   SE     -3
    2   21   ES     10
    2   21   EE    -12
    3    8   SS    -10
    3    8   SE    -10
    3    8   ES     -4
    3    8   EE      7
    3   11   SS      7
    3   11   SE      3
    3   11   ES     11
    3   11   EE     -3
    4    6   SS      2
    4    6   SE     -2
    4    6   ES     -4
    4    6   EE     11
    4    7   SS      3
    4    7   SE     -6
    4    7   ES      9
    4    7   EE      8
    4   13   SS      2
    4   13   SE      2
    4   13   ES    -11
    4   13   EE     -4
    5   11   SS     12
    5   11   SE      6
    5   11   ES      7
    5   11   EE    -11
    5   20   SS      6
    5   20   SE      1
    5   20   ES      2
    5   20   EE      5
    6   10   SS    -10
    6   10   SE      7
    6   10   ES     -3
    6   10   EE     -1
    6   11   SS      0
    6   11   SE     -2
    6   11   ES      6
    6   11   EE      3
    6   14   SS      2
    6   14   SE     -5
    6   14   ES      7
    6   14   EE      0
    7   18   SS     -9
    7   18   SE     12
    7   18   ES    -11
    7   18   EE      9
    7   20   SS     -6
    7   20   SE     12
    7   20   ES      9
    7   20   EE     -4
    8    9   SS    -12
    8    9   SE     -2
    8    9   ES      3
    8    9   EE     -6
    8   20   SS      0
    8   20   SE      5
    8   20   ES     11
    8   20   EE      6
    9   10   SS     -9
    9   10   SE    -11
    9   10   ES      4
    9   10   EE     11
    9   13   SS    -12
    9   13   SE     -3
    9   13   ES     -9
    9   13   EE     10
   10   15   SS      9
   10   15   SE      3
   10   15   ES     -2
   10   15   EE      1
   10   16   SS      7
   10   16   SE      8
   10   16   ES     -4
   10   16   EE     -6
   11   19   SS    -11
   11   19   SE      3
   11   19   ES     10
   11   19   EE     -7
   12   14   SS     -9
   12   14   SE      9
   12   14   ES      4
   12   14   EE      9
   12   16   SS      4
   12   16   SE      2
   12   16   ES      9
   12   16   EE      2
   13   14   SS    -10
   13   14   SE      9
   13   14   ES     11
   13   14   EE      1
   13   16   SS      6
   13   16   SE      6
   13   16   ES     -9
   13   16   EE      0
   14   15   SS     -2
   14   15   SE      4
   14   15   ES      2
   14   15   EE     -7
   14   18   SS     -5
   14   18   SE      1
   14   18   ES     -5
   14   18   EE     -3
   15   19   SS     12
   15   19   SE    -10
   15   19   ES     -9
   15   19   EE    -11
   16   17   SS     -4
   16   17   SE      5
   16   17   ES     -2
   16   17   EE      2
   17   18   SS      5
   17   18   SE     10
   17   18   ES      1
   17   18   EE      2
   17   19   SS     -9
   17   19   SE     -8
   19   17   SE      0
   17   19   ES      0
   17   19   EE     -2
   18   21   SS      3
   18   21   SE     10
   18   21   ES     -7
   18   21   EE      5
   19   22   SS    -10
   19   22   SE      5
   19   22   ES     -8
   19   22   EE     12
   20   22   SS      6
   20   22   SE     -9
   20   22   ES     -7
   20   22   EE      3
   21   22   SS     12
   21   22   SE      5
   21   22   ES      7
   21   22   EE      8
************************************************************************
